     Program PWSCF v.7.1 starts on 16Jul2022 at 18:22: 0

     Reading input from /nfs/home/trewicedwa/qe/GdN-FCC_sfc.in

     Current dimensions of program PWSCF are:
     Max number of different atomic species (ntypx) = 10
     Max number of k-points (npk) =  40000
     Max angular momentum in pseudopotentials (lmaxx) =  4

     K-points division:     npool     =       4
     R & G space division:  proc/nbgrp/npool/nimage =      16
     Subspace diagonalization in iterative solution of the eigenvalue problem:
     a serial algorithm will be used

     Using Slab Decomposition

     Title:
     GdN_FCC-scf

     bravais-lattice index     =            2
     lattice parameter (alat)  =       9.4467  a.u.
     unit-cell volume          =     210.7589 (a.u.)^3
     number of atoms/cell      =            2
     number of atomic types    =            2
     number of electrons       =        23.00
     number of Kohn-Sham states=           16
     kinetic-energy cutoff     =      80.0000  Ry
     charge density cutoff     =     320.0000  Ry
     scf convergence threshold =      1.6E-09
     mixing beta               =       0.4000
     number of iterations used =            8  plain     mixing
     Exchange-correlation= PBE
                           (   1   4   3   4   0   0   0)

     celldm(1)=   9.446741  celldm(2)=   1.000000  celldm(3)=   1.000000
     celldm(4)=   0.000000  celldm(5)=   0.000000  celldm(6)=   0.000000

     crystal axes: (cart. coord. in units of alat)
               a(1) = (  -0.500000   0.000000   0.500000 )
               a(2) = (   0.000000   0.500000   0.500000 )
               a(3) = (  -0.500000   0.500000   0.000000 )

     reciprocal axes: (cart. coord. in units 2 pi/alat)
               b(1) = ( -1.000000 -1.000000  1.000000 )
               b(2) = (  1.000000  1.000000  1.000000 )
               b(3) = ( -1.000000  1.000000 -1.000000 )

     PseudoPot. # 1 for Gd read from file:
     /nfs/home/trewicedwa/qe/pseudo/Gd.GGA-PBE-paw-v1.0.UPF
     MD5 check sum: 3e8e0d208da550914ae52eaf991d13de
     Pseudo is Projector augmented-wave + core cor, Zval = 18.0
     Generated using ATOMPAW code
     Shape of augmentation charge: BESSEL
     Using radial grid of 1110 points,  8 beta functions with:
                l(1) =   0
                l(2) =   0
                l(3) =   1
                l(4) =   1
                l(5) =   2
                l(6) =   2
                l(7) =   3
                l(8) =   3
     Q(r) pseudized with 0 coefficients

     PseudoPot. # 2 for N  read from file:
     /nfs/home/trewicedwa/qe/pseudo/N.oncvpsp.upf
     MD5 check sum: 563d65bfb082928f0c9eb97172f6c357
     Pseudo is Norm-conserving + core correction, Zval =  5.0
     Generated using ONCVPSP code by D. R. Hamann
     Using radial grid of 1058 points,  4 beta functions with:
                l(1) =   0
                l(2) =   0
                l(3) =   1
                l(4) =   1

     atomic species   valence    mass     pseudopotential
        Gd            18.00   157.25000     Gd( 1.00)
        N              5.00    14.00670     N ( 1.00)

     Starting magnetic structure
     atomic species   magnetization
        Gd           0.278
        N            0.100

     48 Sym. Ops., with inversion, found

                                    s                        frac. trans.

      isym =  1     identity

 cryst.   s( 1) = (     1          0          0      )
                  (     0          1          0      )
                  (     0          0          1      )

 cart.    s( 1) = (  1.0000000  0.0000000  0.0000000 )
                  (  0.0000000  1.0000000  0.0000000 )
                  (  0.0000000  0.0000000  1.0000000 )

      isym =  2     180 deg rotation - cart. axis [0,0,1]

[...]

 cryst.   s( 9) = (    -1          0          0      )
                  (     0          0         -1      )
                  (     0         -1          0      )

 cart.    s( 9) = (  0.0000000  0.0000000  1.0000000 )
                  (  0.0000000 -1.0000000  0.0000000 )
                  (  1.0000000  0.0000000  0.0000000 )

[...]

 cryst.   s(10) = (     1          0          0      )
                  (     1         -1          0      )
                  (     1          0         -1      )

 cart.    s(10) = (  0.0000000  0.0000000 -1.0000000 )
                  (  0.0000000 -1.0000000  0.0000000 )
                  ( -1.0000000  0.0000000  0.0000000 )

[...]

      isym = 24     120 deg rotation - cart. axis [-1,-1,1]

[...]

      isym = 25     inversion

[...]

      isym = 26     inv. 180 deg rotation - cart. axis [0,0,1]

[...]

      isym = 48     inv. 120 deg rotation - cart. axis [-1,-1,1]

 cryst.   s(48) = (    -1          1          0      )
                  (     0          1         -1      )
                  (     0          1          0      )

 cart.    s(48) = (  0.0000000  0.0000000  1.0000000 )
                  ( -1.0000000  0.0000000  0.0000000 )
                  (  0.0000000  1.0000000  0.0000000 )

     point group O_h (m-3m)
     there are 10 classes
     the character table:

       E     8C3   3C2   6C4   6C2'  i     8S6   3s_h  6S4   6s_d
A_1g   1.00  1.00  1.00  1.00  1.00  1.00  1.00  1.00  1.00  1.00
A_2g   1.00  1.00  1.00 -1.00 -1.00  1.00  1.00  1.00 -1.00 -1.00
E_g    2.00 -1.00  2.00  0.00  0.00  2.00 -1.00  2.00  0.00  0.00
T_1g   3.00  0.00 -1.00  1.00 -1.00  3.00  0.00 -1.00  1.00 -1.00
T_2g   3.00  0.00 -1.00 -1.00  1.00  3.00  0.00 -1.00 -1.00  1.00
A_1u   1.00  1.00  1.00  1.00  1.00 -1.00 -1.00 -1.00 -1.00 -1.00
A_2u   1.00  1.00  1.00 -1.00 -1.00 -1.00 -1.00 -1.00  1.00  1.00
E_u    2.00 -1.00  2.00  0.00  0.00 -2.00  1.00 -2.00  0.00  0.00
T_1u   3.00  0.00 -1.00  1.00 -1.00 -3.00  0.00  1.00 -1.00  1.00
T_2u   3.00  0.00 -1.00 -1.00  1.00 -3.00  0.00  1.00  1.00 -1.00

     the symmetry operations in each class and the name of the first element:

     E        1
          identity
     8C3     17   19   20   18   24   21   22   23
          120 deg rotation - cart. axis [-1,-1,-1]
     3C2      2    4    3
          180 deg rotation - cart. axis [0,0,1]
     6C4      7    8   15   16   12   11
           90 deg rotation - cart. axis [0,0,-1]
     6C2'     5    6   14   13   10    9
          180 deg rotation - cart. axis [1,1,0]
     i       25
          inversion
     8S6     41   43   44   42   48   45   46   47
          inv. 120 deg rotation - cart. axis [-1,-1,-1]
     3s_h    26   28   27
          inv. 180 deg rotation - cart. axis [0,0,1]
     6S4     31   32   39   40   36   35
          inv.  90 deg rotation - cart. axis [0,0,-1]
     6s_d    29   30   38   37   34   33
          inv. 180 deg rotation - cart. axis [1,1,0]

   Cartesian axes

     site n.     atom                  positions (alat units)
         1           Gd  tau(   1) = (   0.0000000   0.0000000   0.0000000  )
         2           N   tau(   2) = (  -0.5000000   0.5000000   0.5000000  )

   Crystallographic axes

     site n.     atom                  positions (cryst. coord.)
         1           Gd  tau(   1) = (  0.0000000  0.0000000  0.0000000  )
         2           N   tau(   2) = (  0.5000000  0.5000000  0.5000000  )

     number of k points=    20  Marzari-Vanderbilt smearing, width (Ry)=  0.0147
                       cart. coord. in units 2pi/alat
        k(    1) = (   0.0000000   0.0000000   0.0000000), wk =   0.0029155
        k(    2) = (  -0.1428571   0.1428571  -0.1428571), wk =   0.0233236
        k(    3) = (  -0.2857143   0.2857143  -0.2857143), wk =   0.0233236
        k(    4) = (  -0.4285714   0.4285714  -0.4285714), wk =   0.0233236
        k(    5) = (   0.0000000   0.2857143   0.0000000), wk =   0.0174927
        k(    6) = (  -0.1428571   0.4285714  -0.1428571), wk =   0.0699708
        k(    7) = (  -0.2857143   0.5714286  -0.2857143), wk =   0.0699708
        k(    8) = (   0.5714286  -0.2857143   0.5714286), wk =   0.0699708
        k(    9) = (   0.4285714  -0.1428571   0.4285714), wk =   0.0699708
        k(   10) = (   0.2857143  -0.0000000   0.2857143), wk =   0.0349854
        k(   11) = (   0.0000000   0.5714286   0.0000000), wk =   0.0174927
        k(   12) = (  -0.1428571   0.7142857  -0.1428571), wk =   0.0699708
        k(   13) = (   0.7142857  -0.1428571   0.7142857), wk =   0.0699708
        k(   14) = (   0.5714286   0.0000000   0.5714286), wk =   0.0349854
        k(   15) = (   0.0000000   0.8571429   0.0000000), wk =   0.0174927
        k(   16) = (   0.8571429  -0.0000000   0.8571429), wk =   0.0349854
        k(   17) = (  -0.2857143   0.5714286   0.0000000), wk =   0.0699708
        k(   18) = (   0.5714286  -0.2857143   0.8571429), wk =   0.1399417
        k(   19) = (   0.7142857  -0.1428571   1.0000000), wk =   0.0699708
        k(   20) = (   0.5714286   0.0000000   0.8571429), wk =   0.0699708

                       cryst. coord.
        k(    1) = (   0.0000000   0.0000000   0.0000000), wk =   0.0029155
        k(    2) = (   0.0000000   0.0000000   0.1428571), wk =   0.0233236
        k(    3) = (   0.0000000   0.0000000   0.2857143), wk =   0.0233236
        k(    4) = (   0.0000000   0.0000000   0.4285714), wk =   0.0233236
        k(    5) = (   0.0000000   0.1428571   0.1428571), wk =   0.0174927
        k(    6) = (   0.0000000   0.1428571   0.2857143), wk =   0.0699708
        k(    7) = (   0.0000000   0.1428571   0.4285714), wk =   0.0699708
        k(    8) = (   0.0000000   0.1428571  -0.4285714), wk =   0.0699708
        k(    9) = (   0.0000000   0.1428571  -0.2857143), wk =   0.0699708
        k(   10) = (   0.0000000   0.1428571  -0.1428571), wk =   0.0349854
        k(   11) = (   0.0000000   0.2857143   0.2857143), wk =   0.0174927
        k(   12) = (   0.0000000   0.2857143   0.4285714), wk =   0.0699708
        k(   13) = (   0.0000000   0.2857143  -0.4285714), wk =   0.0699708
        k(   14) = (   0.0000000   0.2857143  -0.2857143), wk =   0.0349854
        k(   15) = (   0.0000000   0.4285714   0.4285714), wk =   0.0174927
        k(   16) = (   0.0000000   0.4285714  -0.4285714), wk =   0.0349854
        k(   17) = (   0.1428571   0.2857143   0.4285714), wk =   0.0699708
        k(   18) = (   0.1428571   0.2857143  -0.4285714), wk =   0.1399417
        k(   19) = (   0.1428571   0.4285714  -0.4285714), wk =   0.0699708
        k(   20) = (   0.1428571   0.4285714  -0.2857143), wk =   0.0699708

     Initial potential from superposition of free atoms

     starting charge      22.9948, renormalised to      23.0000
     Starting wfcs are   36 randomized atomic wfcs
     Checking if some PAW data can be deallocated...

     Self-consistent Calculation

     iteration #  1     ecut=    80.00 Ry     beta= 0.40
     Davidson diagonalization with overlap

     ethr =  1.00E-02,  avg # of iterations =  1.5

     WARNING: integrated charge=    23.00235235, expected=    23.00000000

     total energy              =    -704.60626038 Ry
     estimated scf accuracy    <       1.13991451 Ry

     total magnetization       =     7.01 Bohr mag/cell
     absolute magnetization    =     7.01 Bohr mag/cell

[...]

     ethr =  4.96E-03,  avg # of iterations =  2.0
     Minimization algorithm failed to find Fermi energy: reverting to bisection
     Possible cause: smearing is larger than the electronic band-gap.

[...]

     ethr =  4.07E-06,  avg # of iterations =  4.2

[...]

     WARNING: integrated charge=    22.99999228, expected=    23.00000000

[...]

     total energy              =    -704.97869235 Ry
     estimated scf accuracy    <       0.00000003 Ry

[...]

     iteration # 18     ecut=    80.00 Ry     beta= 0.40
     Davidson diagonalization with overlap

     ethr =  3.81E-11,  avg # of iterations =  3.8
     Minimization algorithm failed to find Fermi energy: reverting to bisection
     Possible cause: smearing is larger than the electronic band-gap.

     Magnetic moment per site  (integrated on atomic sphere of radius R)
     atom   1 (R=0.206)  charge= 14.4769  magn=  6.8683
     atom   2 (R=0.206)  charge=  5.3266  magn= -0.1025

     End of self-consistent calculation

 ------ SPIN UP ------------

          k = 0.0000 0.0000 0.0000 (  2637 PWs)   bands (ev):

   -29.4154  -6.4277  -6.4277  -6.4277   1.3923  10.9482  10.9482  10.9482
    11.1279  11.3653  11.3653  11.3653  14.7052  14.7052  14.7052  16.8848

     occupation numbers
     1.0000   1.0000   1.0000   1.0000   1.0000   1.0000   1.0000   1.0000
     1.0000   1.0000   1.0000   1.0000   0.0011   0.0011   0.0011   0.0000

          k =-0.1429 0.1429-0.1429 (  2568 PWs)   bands (ev):

[...]

 ------ SPIN DOWN ----------

[...]

          k =-0.2857 0.5714 0.0000 (  2555 PWs)   bands (ev):

[...]

          k = 0.5714 0.0000 0.8571 (  2542 PWs)   bands (ev):

   -26.1980  -4.9693  -4.9285  -4.5367   2.3315  11.9108  12.8652  13.0441
    16.1633  16.3098  16.4605  16.5021  16.5755  16.5972  16.7024  18.4233

     occupation numbers
     1.0000   1.0000   1.0000   1.0000   1.0000   1.0000   1.0000   1.0000
     0.0000   0.0000   0.0000   0.0000   0.0000   0.0000   0.0000   0.0000

     the Fermi energy is    14.3530 ev

!    total energy              =    -704.97869236 Ry
     estimated scf accuracy    <          5.8E-10 Ry
     smearing contrib. (-TS)   =       0.00014011 Ry
     internal energy E=F+TS    =    -704.97883247 Ry

     The total energy is F=E-TS. E is the sum of the following terms:
     one-electron contribution =     -76.58189380 Ry
     hartree contribution      =      56.86785294 Ry
     xc contribution           =     -29.73201016 Ry
     ewald contribution        =    -190.14693032 Ry
     one-center paw contrib.   =    -465.38585113 Ry
      -> PAW hartree energy AE =     182.33384145 Ry
      -> PAW hartree energy PS =    -172.92025627 Ry
      -> PAW xc energy AE      =    -497.16519209 Ry
      -> PAW xc energy PS      =      22.36575579 Ry
      -> total E_H with PAW    =      66.28143812 Ry
      -> total E_XC with PAW   =    -504.53144646 Ry

     total magnetization       =     7.00 Bohr mag/cell
     absolute magnetization    =     7.21 Bohr mag/cell

     convergence has been achieved in  18 iterations

     Forces acting on atoms (cartesian axes, Ry/au):

     atom    1 type  1   force =    -0.00000000   -0.00000000   -0.00000000
     atom    2 type  2   force =     0.00000000    0.00000000    0.00000000
     The non-local contrib.  to forces
     atom    1 type  1   force =     0.00000000   -0.00000000   -0.00000000
     atom    2 type  2   force =     0.00000000    0.00000000    0.00000000
     The ionic contribution  to forces
     atom    1 type  1   force =     0.00000000   -0.00000000   -0.00000000
     atom    2 type  2   force =    -0.00000000    0.00000000    0.00000000
     The local contribution  to forces
     atom    1 type  1   force =     0.00000000   -0.00000000   -0.00000000
     atom    2 type  2   force =    -0.00000000    0.00000000    0.00000000
     The core correction contribution to forces
     atom    1 type  1   force =     0.00000000   -0.00000000   -0.00000000
     atom    2 type  2   force =     0.00000000   -0.00000000   -0.00000000
     The Hubbard contrib.    to forces
     atom    1 type  1   force =     0.00000000    0.00000000    0.00000000
     atom    2 type  2   force =     0.00000000    0.00000000    0.00000000
     The SCF correction term to forces
     atom    1 type  1   force =     0.00000000   -0.00000000    0.00000000
     atom    2 type  2   force =    -0.00000000    0.00000000    0.00000000

     Total force =     0.000000     Total SCF correction =     0.000000

     Computing stress (Cartesian axis) and pressure

          total   stress  (Ry/bohr**3)                   (kbar)     P=       -9.40
  -0.00006392   0.00000000   0.00000000           -9.40        0.00        0.00
   0.00000000  -0.00006392   0.00000000            0.00       -9.40        0.00
   0.00000000   0.00000000  -0.00006392            0.00        0.00       -9.40

     kinetic stress (kbar)  16557.96      0.00      0.00
                                0.00  16557.96     -0.00
                                0.00     -0.00  16557.96

     local   stress (kbar)   8838.46      0.00     -0.00
                                0.00   8838.46      0.00
                               -0.00      0.00   8838.46

     nonloc. stress (kbar)  12090.48      0.00     -0.00
                                0.00  12090.48      0.00
                               -0.00      0.00  12090.48

     hartree stress (kbar)  13230.83      0.00      0.00
                                0.00  13230.83      0.00
                                0.00      0.00  13230.83

     exc-cor stress (kbar)  -5750.11     -0.00      0.00
                               -0.00  -5750.11     -0.00
                                0.00     -0.00  -5750.11

     corecor stress (kbar)   -737.58     -0.00      0.00
                               -0.00   -737.58     -0.00
                                0.00     -0.00   -737.58

     ewald   stress (kbar) -44239.45      0.00     -0.00
                                0.00 -44239.45      0.00
                               -0.00      0.00 -44239.45

     hubbard stress (kbar)      0.00      0.00      0.00
                                0.00      0.00      0.00
                                0.00      0.00      0.00

     DFT-D   stress (kbar)      0.00      0.00      0.00
                                0.00      0.00      0.00
                                0.00      0.00      0.00

     XDM     stress (kbar)      0.00      0.00      0.00
                                0.00      0.00      0.00
                                0.00      0.00      0.00

     dft-nl  stress (kbar)      0.00      0.00      0.00
                                0.00      0.00      0.00
                                0.00      0.00      0.00

     TS-vdW  stress (kbar)      0.00      0.00      0.00
                                0.00      0.00      0.00
                                0.00      0.00      0.00

     MDB     stress (kbar)      0.00      0.00      0.00
                                0.00      0.00      0.00
                                0.00      0.00      0.00

     3D-RISM stress (kbar)      0.00      0.00      0.00
                                0.00      0.00      0.00
                                0.00      0.00      0.00

     Writing all to output data dir /nfs/home/trewicedwa/qe/out/GdN_FCC-scf.save/

     General routines

     Parallel routines

     PAW routines

   This run was terminated on:  18:27:38  16Jul2022

   JOB DONE.